c Result of efficient AIG-to-CNF conversion using package CNF
p cnf 459 1588
2 430 3 4 -13 0
-2 -430 0
-2 13 0
-2 -4 0
-2 -3 0
-3 427 428 429 0
3 -427 0
3 -429 0
3 -428 0
-4 431 432 5 12 0
4 -431 0
4 -12 0
4 -5 0
4 -432 0
-5 6 8 9 11 0
5 -11 0
5 -6 0
5 -9 0
5 -8 0
-6 450 451 452 7 0
6 -7 0
6 -452 0
6 -450 0
6 -451 0
-7 448 449 453 0
7 -448 0
7 -453 0
7 -449 0
-8 436 437 440 441 0
8 -441 0
8 -440 0
8 -436 0
8 -437 0
-9 445 446 447 10 0
9 -10 0
9 -447 0
9 -445 0
9 -446 0
-10 442 443 444 0
10 -442 0
10 -444 0
10 -443 0
-11 438 439 0
11 -438 0
11 -439 0
-12 433 434 435 0
12 -433 0
12 -435 0
12 -434 0
13 454 -14 0
13 454 291 -338 0
-13 -454 0
-13 14 338 0
-13 14 -291 0
14 -455 -266 0
14 455 -15 0
14 -455 -285 0
-14 455 15 0
-14 -455 266 285 0
-15 -456 248 0
-15 456 16 241 0
15 456 -16 0
15 -456 -248 0
15 456 -241 0
16 457 -17 0
16 -457 -220 0
-16 -457 220 0
-16 457 17 0
17 458 -18 0
17 -458 -200 0
-17 -458 200 0
-17 458 18 0
18 422 -19 169 0
18 -422 169 -180 0
-18 -169 0
-18 -422 180 0
-18 422 19 0
19 423 -20 0
19 -423 -114 0
-19 -423 114 0
-19 423 20 0
20 424 -21 0
20 -424 -78 0
-20 -424 78 0
-20 424 21 0
21 425 -22 0
21 -425 -55 0
-21 -425 55 0
-21 425 22 0
22 426 -23 0
22 -426 -40 0
-22 -426 40 0
-22 426 23 0
23 -24 37 0
-23 24 0
-23 -37 0
24 455 -25 0
24 -455 -32 0
-24 -455 32 0
-24 455 25 0
25 456 -26 0
25 -456 -29 0
-25 -456 29 0
-25 456 26 0
26 457 -27 0
26 -457 -28 0
-26 -457 28 0
-26 457 27 0
27 -414 -458 0
27 -413 458 0
-27 413 458 0
-27 414 -458 0
28 -416 -458 0
28 -415 458 0
-28 415 458 0
-28 416 -458 0
29 457 -30 0
29 -457 -31 0
-29 -457 31 0
-29 457 30 0
30 -418 -458 0
30 -417 458 0
-30 417 458 0
-30 418 -458 0
31 -420 -458 0
31 -419 458 0
-31 419 458 0
-31 420 -458 0
32 456 -33 0
32 -456 -36 0
-32 -456 36 0
-32 456 33 0
33 457 -34 0
33 -457 -35 0
-33 -457 35 0
-33 457 34 0
34 -422 -458 0
34 -421 458 0
-34 421 458 0
-34 422 -458 0
35 -424 -458 0
35 -423 458 0
-35 423 458 0
-35 424 -458 0
36 -425 457 458 0
36 -426 457 -458 0
-36 -457 0
-36 426 -458 0
-36 425 458 0
-37 454 5 38 0
37 -38 0
37 -5 0
37 -454 0
-38 430 3 39 12 0
38 -430 0
38 -12 0
38 -39 0
38 -3 0
-39 431 432 0
39 -431 0
39 -432 0
40 37 -41 0
-40 -37 0
-40 41 0
41 455 -42 0
41 -455 -49 0
-41 -455 49 0
-41 455 42 0
42 456 -43 0
42 -456 -46 0
-42 -456 46 0
-42 456 43 0
43 457 -44 0
43 -457 -45 0
-43 -457 45 0
-43 457 44 0
44 -413 -458 0
44 -412 458 0
-44 412 458 0
-44 413 -458 0
45 -415 -458 0
45 -414 458 0
-45 414 458 0
-45 415 -458 0
46 457 -47 0
46 -457 -48 0
-46 -457 48 0
-46 457 47 0
47 -417 -458 0
47 -416 458 0
-47 416 458 0
-47 417 -458 0
48 -419 -458 0
48 -418 458 0
-48 418 458 0
-48 419 -458 0
49 456 -50 0
49 -456 -53 0
-49 -456 53 0
-49 456 50 0
50 457 -51 0
50 -457 -52 0
-50 -457 52 0
-50 457 51 0
51 -421 -458 0
51 -420 458 0
-51 420 458 0
-51 421 -458 0
52 -423 -458 0
52 -422 458 0
-52 422 458 0
-52 423 -458 0
53 457 -54 0
53 -426 -457 458 0
-53 457 54 0
-53 -457 -458 0
-53 426 -457 0
54 -425 -458 0
54 -424 458 0
-54 424 458 0
-54 425 -458 0
55 426 -56 0
55 -426 -66 0
-55 -426 66 0
-55 426 56 0
56 37 -57 0
-56 -37 0
-56 57 0
57 455 -58 0
57 -455 -62 0
-57 -455 62 0
-57 455 58 0
58 456 -59 0
58 -456 -61 0
-58 -456 61 0
-58 456 59 0
59 -457 -27 0
59 457 -60 0
-59 457 60 0
-59 -457 27 0
60 -412 -458 0
60 -411 458 0
-60 411 458 0
-60 412 -458 0
61 457 -28 0
61 -457 -30 0
-61 -457 30 0
-61 457 28 0
62 456 -63 0
62 -456 -64 0
-62 -456 64 0
-62 456 63 0
63 457 -31 0
63 -457 -34 0
-63 -457 34 0
-63 457 31 0
64 457 -35 0
64 -457 -65 0
-64 -457 65 0
-64 457 35 0
65 -426 -458 0
65 -425 458 0
-65 425 458 0
-65 426 -458 0
66 -454 67 -76 0
66 454 67 -68 0
-66 -67 0
-66 -454 76 0
-66 454 68 0
-67 5 38 0
67 -5 0
67 -38 0
-68 455 72 0
-68 -455 69 0
68 -455 -69 0
68 455 -72 0
69 456 -70 0
69 -456 -71 0
-69 -456 71 0
-69 456 70 0
70 457 -48 0
70 -457 -51 0
-70 -457 51 0
-70 457 48 0
71 457 -52 0
71 -457 -54 0
-71 -457 54 0
-71 457 52 0
72 456 -73 0
72 -456 -75 0
-72 -456 75 0
-72 456 73 0
73 -457 -44 0
73 457 -74 0
-73 457 74 0
-73 -457 44 0
74 -411 -458 0
74 -410 458 0
-74 410 458 0
-74 411 -458 0
75 457 -45 0
75 -457 -47 0
-75 -457 47 0
-75 457 45 0
76 455 -77 0
-76 -455 0
-76 77 0
77 -426 456 457 458 0
-77 -458 0
-77 -457 0
-77 426 0
-77 -456 0
78 425 -79 0
78 -425 -96 0
-78 -425 96 0
-78 425 79 0
79 426 -80 0
79 -426 -88 0
-79 -426 88 0
-79 426 80 0
80 -454 67 -86 0
80 454 67 -81 0
-80 -67 0
-80 -454 86 0
-80 454 81 0
-81 455 83 0
-81 -455 82 0
81 -455 -82 0
81 455 -83 0
82 456 -29 0
82 -456 -33 0
-82 -456 33 0
-82 456 29 0
83 -456 -26 0
83 456 -84 0
-83 456 84 0
-83 -456 26 0
84 -457 -60 0
84 457 -85 0
-84 457 85 0
-84 -457 60 0
85 -410 -458 0
85 -409 458 0
-85 409 458 0
-85 410 -458 0
86 455 -87 0
-86 -455 0
-86 87 0
87 456 -36 0
-87 -456 0
-87 36 0
88 -454 67 -94 0
88 454 67 -89 0
-88 -67 0
-88 -454 94 0
-88 454 89 0
-89 455 91 0
-89 -455 90 0
89 -455 -90 0
89 455 -91 0
90 456 -46 0
90 -456 -50 0
-90 -456 50 0
-90 456 46 0
91 -456 -43 0
91 456 -92 0
-91 456 92 0
-91 -456 43 0
92 -457 -74 0
92 457 -93 0
-92 457 93 0
-92 -457 74 0
93 -409 -458 0
93 -408 458 0
-93 408 458 0
-93 409 -458 0
94 455 -95 0
-94 -455 0
-94 95 0
95 456 -53 0
-95 -456 0
-95 53 0
96 426 -97 0
96 -426 -105 0
-96 -426 105 0
-96 426 97 0
97 -454 67 -103 0
97 454 67 -98 0
-97 -67 0
-97 -454 103 0
-97 454 98 0
-98 455 100 0
-98 -455 99 0
98 -455 -99 0
98 455 -100 0
99 456 -61 0
99 -456 -63 0
-99 -456 63 0
-99 456 61 0
100 -456 -59 0
100 456 -101 0
-100 456 101 0
-100 -456 59 0
101 -457 -85 0
101 457 -102 0
-101 457 102 0
-101 -457 85 0
102 -408 -458 0
102 -407 458 0
-102 407 458 0
-102 408 -458 0
103 455 -104 0
-103 -455 0
-103 104 0
104 456 -64 0
-104 -456 0
-104 64 0
105 -454 67 -111 0
105 454 67 -106 0
-105 -67 0
-105 -454 111 0
-105 454 106 0
-106 455 108 0
-106 -455 107 0
106 -455 -107 0
106 455 -108 0
107 -456 -70 0
107 456 -75 0
-107 456 75 0
-107 -456 70 0
108 -456 -73 0
108 456 -109 0
-108 456 109 0
-108 -456 73 0
109 -457 -93 0
109 457 -110 0
-109 457 110 0
-109 -457 93 0
110 -407 -458 0
110 -406 458 0
-110 406 458 0
-110 407 -458 0
111 455 -112 0
-111 -455 0
-111 112 0
112 456 -71 0
112 -456 -113 0
-112 -456 113 0
-112 456 71 0
113 -426 457 458 0
-113 426 0
-113 -458 0
-113 -457 0
114 424 -115 0
114 -424 -142 0
-114 -424 142 0
-114 424 115 0
115 425 -116 0
115 -425 -129 0
-115 -425 129 0
-115 425 116 0
116 426 -117 0
116 -426 -123 0
-116 -426 123 0
-116 426 117 0
117 -454 67 -122 0
117 454 67 -118 0
-117 -67 0
-117 -454 122 0
-117 454 118 0
-118 455 119 0
-118 -455 25 0
118 -455 -25 0
118 455 -119 0
119 -456 -84 0
119 456 -120 0
-119 456 120 0
-119 -456 84 0
120 -457 -102 0
120 457 -121 0
-120 457 121 0
-120 -457 102 0
121 -406 -458 0
121 -405 458 0
-121 405 458 0
-121 406 -458 0
122 455 -32 0
-122 -455 0
-122 32 0
123 -454 67 -128 0
123 454 67 -124 0
-123 -67 0
-123 -454 128 0
-123 454 124 0
-124 455 125 0
-124 -455 42 0
124 -455 -42 0
124 455 -125 0
125 -456 -92 0
125 456 -126 0
-125 456 126 0
-125 -456 92 0
126 -457 -110 0
126 457 -127 0
-126 457 127 0
-126 -457 110 0
127 -405 -458 0
127 -404 458 0
-127 404 458 0
-127 405 -458 0
128 455 -49 0
-128 -455 0
-128 49 0
129 426 -130 0
129 -426 -136 0
-129 -426 136 0
-129 426 130 0
130 -454 67 -135 0
130 454 67 -131 0
-130 -67 0
-130 -454 135 0
-130 454 131 0
-131 455 132 0
-131 -455 58 0
131 -455 -58 0
131 455 -132 0
132 -456 -101 0
132 456 -133 0
-132 456 133 0
-132 -456 101 0
133 -457 -121 0
133 457 -134 0
-133 457 134 0
-133 -457 121 0
134 -404 -458 0
134 -403 458 0
-134 403 458 0
-134 404 -458 0
135 455 -62 0
-135 -455 0
-135 62 0
136 -454 67 -141 0
136 454 67 -137 0
-136 -67 0
-136 -454 141 0
-136 454 137 0
-137 -455 72 0
-137 455 138 0
137 -455 -72 0
137 455 -138 0
-138 456 139 0
-138 -456 109 0
138 -456 -109 0
138 456 -139 0
139 -457 -127 0
139 457 -140 0
-139 457 140 0
-139 -457 127 0
140 -403 -458 0
140 -402 458 0
-140 402 458 0
-140 403 -458 0
141 455 -69 0
141 -455 -77 0
-141 -455 77 0
-141 455 69 0
142 425 -143 0
142 -425 -156 0
-142 -425 156 0
-142 425 143 0
143 426 -144 0
143 -426 -150 0
-143 -426 150 0
-143 426 144 0
144 -454 67 -149 0
144 454 67 -145 0
-144 -67 0
-144 -454 149 0
-144 454 145 0
-145 -455 83 0
-145 455 146 0
145 -455 -83 0
145 455 -146 0
-146 456 147 0
-146 -456 120 0
146 -456 -120 0
146 456 -147 0
147 -457 -134 0
147 457 -148 0
-147 457 148 0
-147 -457 134 0
148 -402 -458 0
148 -401 458 0
-148 401 458 0
-148 402 -458 0
149 455 -82 0
149 -455 -87 0
-149 -455 87 0
-149 455 82 0
150 -454 67 -155 0
150 454 67 -151 0
-150 -67 0
-150 -454 155 0
-150 454 151 0
-151 -455 91 0
-151 455 152 0
151 -455 -91 0
151 455 -152 0
-152 456 153 0
-152 -456 126 0
152 -456 -126 0
152 456 -153 0
153 -457 -140 0
153 457 -154 0
-153 457 154 0
-153 -457 140 0
154 -401 -458 0
154 -400 458 0
-154 400 458 0
-154 401 -458 0
155 455 -90 0
155 -455 -95 0
-155 -455 95 0
-155 455 90 0
156 426 -157 0
156 -426 -163 0
-156 -426 163 0
-156 426 157 0
157 -454 67 -162 0
157 454 67 -158 0
-157 -67 0
-157 -454 162 0
-157 454 158 0
-158 -455 100 0
-158 455 159 0
158 -455 -100 0
158 455 -159 0
-159 456 160 0
-159 -456 133 0
159 -456 -133 0
159 456 -160 0
160 -457 -148 0
160 457 -161 0
-160 457 161 0
-160 -457 148 0
161 -400 -458 0
161 -399 458 0
-161 399 458 0
-161 400 -458 0
162 455 -99 0
162 -455 -104 0
-162 -455 104 0
-162 455 99 0
163 -454 67 -168 0
163 454 67 -164 0
-163 -67 0
-163 -454 168 0
-163 454 164 0
-164 -455 108 0
-164 455 165 0
164 -455 -108 0
164 455 -165 0
-165 -456 139 0
-165 456 166 0
165 -456 -139 0
165 456 -166 0
-166 457 167 0
-166 -457 154 0
166 -457 -154 0
166 457 -167 0
167 -399 -458 0
167 -398 458 0
-167 398 458 0
-167 399 -458 0
168 455 -107 0
168 -455 -112 0
-168 -455 112 0
-168 455 107 0
-169 170 176 178 179 0
169 -179 0
169 -170 0
169 -178 0
169 -176 0
-170 419 420 171 173 0
170 -419 0
170 -173 0
170 -171 0
170 -420 0
-171 411 417 418 172 0
171 -172 0
171 -418 0
171 -411 0
171 -417 0
-172 415 416 421 0
172 -415 0
172 -421 0
172 -416 0
-173 412 413 414 174 0
173 -174 0
173 -414 0
173 -412 0
173 -413 0
-174 407 408 175 0
174 -175 0
174 -408 0
174 -407 0
-175 403 404 409 410 0
175 -410 0
175 -409 0
175 -403 0
175 -404 0
-176 401 405 406 177 0
176 -177 0
176 -406 0
176 -401 0
176 -405 0
-177 399 400 0
177 -399 0
177 -400 0
-178 395 402 0
178 -395 0
178 -402 0
-179 396 397 398 0
179 -396 0
179 -398 0
179 -397 0
180 423 -181 0
-180 -423 0
-180 181 0
181 424 -182 0
-181 -424 0
-181 182 0
182 425 -183 0
182 -425 -194 0
-182 -425 194 0
-182 425 183 0
183 426 -184 0
183 -426 -189 0
-183 -426 189 0
-183 426 184 0
184 454 67 -185 0
184 -454 -24 67 0
-184 -67 0
-184 454 185 0
-184 -454 24 0
-185 -455 119 0
-185 455 186 0
185 -455 -119 0
185 455 -186 0
-186 -456 147 0
-186 456 187 0
186 -456 -147 0
186 456 -187 0
-187 457 188 0
-187 -457 161 0
187 -457 -161 0
187 457 -188 0
188 -398 -458 0
188 -397 458 0
-188 397 458 0
-188 398 -458 0
189 454 67 -190 0
189 -454 -41 67 0
-189 -67 0
-189 -454 41 0
-189 454 190 0
190 -455 -125 0
190 455 -191 0
-190 455 191 0
-190 -455 125 0
191 -456 -153 0
191 456 -192 0
-191 456 192 0
-191 -456 153 0
192 -457 -167 0
192 457 -193 0
-192 457 193 0
-192 -457 167 0
193 -397 -458 0
193 -396 458 0
-193 396 458 0
-193 397 -458 0
194 426 -195 0
-194 -426 0
-194 195 0
195 454 67 -196 0
195 -454 -57 67 0
-195 -67 0
-195 454 196 0
-195 -454 57 0
-196 -455 132 0
-196 455 197 0
196 -455 -132 0
196 455 -197 0
-197 -456 160 0
-197 456 198 0
197 -456 -160 0
197 456 -198 0
-198 -457 188 0
-198 457 199 0
198 -457 -188 0
198 457 -199 0
-199 395 458 0
-199 396 -458 0
199 -396 -458 0
199 -395 458 0
200 -422 169 -216 0
200 422 169 -201 0
-200 -169 0
-200 -422 216 0
-200 422 201 0
201 423 -202 0
201 -423 -209 0
-201 -423 209 0
-201 423 202 0
202 424 -203 0
202 -424 -206 0
-202 -424 206 0
-202 424 203 0
203 425 -204 0
203 -425 -205 0
-203 -425 205 0
-203 425 204 0
204 426 -40 0
204 -426 -56 0
-204 -426 56 0
-204 426 40 0
205 426 -66 0
205 -426 -80 0
-205 -426 80 0
-205 426 66 0
206 425 -207 0
206 -425 -208 0
-206 -425 208 0
-206 425 207 0
207 426 -88 0
207 -426 -97 0
-207 -426 97 0
-207 426 88 0
208 426 -105 0
208 -426 -117 0
-208 -426 117 0
-208 426 105 0
209 424 -210 0
209 -424 -213 0
-209 -424 213 0
-209 424 210 0
210 425 -211 0
210 -425 -212 0
-210 -425 212 0
-210 425 211 0
211 426 -123 0
211 -426 -130 0
-211 -426 130 0
-211 426 123 0
212 426 -136 0
212 -426 -144 0
-212 -426 144 0
-212 426 136 0
213 425 -214 0
213 -425 -215 0
-213 -425 215 0
-213 425 214 0
214 426 -150 0
214 -426 -157 0
-214 -426 157 0
-214 426 150 0
215 426 -163 0
215 -426 -184 0
-215 -426 184 0
-215 426 163 0
216 423 -217 0
-216 -423 0
-216 217 0
217 424 -218 0
-217 -424 0
-217 218 0
218 425 -219 0
-218 -425 0
-218 219 0
219 426 -189 0
219 -426 -195 0
-219 -426 195 0
-219 426 189 0
220 458 -221 0
220 -458 -232 0
-220 -458 232 0
-220 458 221 0
221 -422 169 -229 0
221 422 169 -222 0
-221 -169 0
-221 -422 229 0
-221 422 222 0
222 423 -223 0
222 -423 -226 0
-222 -423 226 0
-222 423 223 0
223 424 -224 0
223 -424 -225 0
-223 -424 225 0
-223 424 224 0
224 425 -55 0
224 -425 -79 0
-224 -425 79 0
-224 425 55 0
225 425 -96 0
225 -425 -116 0
-225 -425 116 0
-225 425 96 0
226 424 -227 0
226 -424 -228 0
-226 -424 228 0
-226 424 227 0
227 425 -129 0
227 -425 -143 0
-227 -425 143 0
-227 425 129 0
228 425 -156 0
228 -425 -183 0
-228 -425 183 0
-228 425 156 0
229 423 -230 0
-229 -423 0
-229 230 0
230 424 -231 0
-230 -424 0
-230 231 0
231 425 -194 0
-231 -425 0
-231 194 0
232 233 -234 0
-232 -233 0
-232 234 0
-233 422 169 0
233 -422 0
233 -169 0
234 423 -235 0
234 -423 -238 0
-234 -423 238 0
-234 423 235 0
235 424 -236 0
235 -424 -237 0
-235 -424 237 0
-235 424 236 0
236 425 -205 0
236 -425 -207 0
-236 -425 207 0
-236 425 205 0
237 425 -208 0
237 -425 -211 0
-237 -425 211 0
-237 425 208 0
238 424 -239 0
238 -424 -240 0
-238 -424 240 0
-238 424 239 0
239 425 -212 0
239 -425 -214 0
-239 -425 214 0
-239 425 212 0
240 425 -215 0
240 -425 -219 0
-240 -425 219 0
-240 425 215 0
241 457 -242 0
241 -457 -243 0
-241 -457 243 0
-241 457 242 0
242 458 -200 0
242 -458 -221 0
-242 -458 221 0
-242 458 200 0
243 458 -232 0
243 -458 -244 0
-243 -458 244 0
-243 458 232 0
244 233 -245 0
-244 -233 0
-244 245 0
245 423 -246 0
245 -423 -247 0
-245 -423 247 0
-245 423 246 0
246 424 -78 0
246 -424 -115 0
-246 -424 115 0
-246 424 78 0
247 424 -142 0
247 -424 -182 0
-247 -424 182 0
-247 424 142 0
248 457 -265 0
248 -457 -249 0
248 457 -260 0
-248 -457 249 0
-248 457 260 265 0
-249 -458 254 258 0
-249 458 250 254 0
249 -254 0
249 458 -250 0
249 -458 -258 0
250 233 -251 0
-250 -233 0
-250 251 0
251 423 -252 0
251 -423 -253 0
-251 -423 253 0
-251 423 252 0
252 424 -225 0
252 -424 -227 0
-252 -424 227 0
-252 424 225 0
253 424 -228 0
253 -424 -231 0
-253 -424 231 0
-253 424 228 0
254 233 -255 0
-254 -233 0
-254 255 0
255 423 -256 0
255 -423 -257 0
-255 -423 257 0
-255 423 256 0
256 424 -237 0
256 -424 -239 0
-256 -424 239 0
-256 424 237 0
257 424 -240 0
-257 -424 0
-257 240 0
258 233 -259 0
-258 -233 0
-258 259 0
259 423 -114 0
259 -423 -181 0
-259 -423 181 0
-259 423 114 0
260 458 -244 0
260 -458 -261 0
-260 -458 261 0
-260 458 244 0
261 233 -262 0
-261 -233 0
-261 262 0
262 423 -263 0
262 -423 -264 0
-262 -423 264 0
-262 423 263 0
263 424 -206 0
263 -424 -210 0
-263 -424 210 0
-263 424 206 0
264 424 -213 0
264 -424 -218 0
-264 -424 218 0
-264 424 213 0
265 -458 -250 0
265 458 -261 0
-265 458 261 0
-265 -458 250 0
266 -456 -277 0
266 456 -267 272 0
-266 456 267 0
-266 -456 277 0
-266 456 -272 0
-267 457 -458 270 0
-267 457 458 268 0
267 -457 0
267 -458 -270 0
267 458 -268 0
268 233 -269 0
-268 -233 0
-268 269 0
269 423 -209 0
269 -423 -217 0
-269 -423 217 0
-269 423 209 0
270 233 -271 0
-270 -233 0
-270 271 0
271 423 -226 0
271 -423 -230 0
-271 -423 230 0
-271 423 226 0
272 -457 -458 275 0
272 -457 458 273 0
-272 457 0
-272 -458 -275 0
-272 458 -273 0
273 233 -274 0
-273 -233 0
-273 274 0
274 423 -238 0
-274 -423 0
-274 238 0
275 233 -276 0
-275 -233 0
-275 276 0
276 423 -247 0
-276 -423 0
-276 247 0
277 457 -278 0
277 -457 458 -283 0
-277 -457 -458 0
-277 457 278 0
-277 -457 283 0
278 458 -279 0
278 -458 -281 0
-278 -458 281 0
-278 458 279 0
279 233 -280 0
-279 -233 0
-279 280 0
280 423 -264 0
-280 -423 0
-280 264 0
281 233 -282 0
-281 -233 0
-281 282 0
282 423 -253 0
-282 -423 0
-282 253 0
283 233 -284 0
-283 -233 0
-283 284 0
284 423 -257 0
-284 -423 0
-284 257 0
285 456 -286 0
285 -456 -289 290 0
-285 -456 289 0
-285 456 286 0
-285 -456 -290 0
286 457 -287 0
286 -457 -288 0
-286 -457 288 0
-286 457 287 0
287 458 -258 0
287 -458 -268 0
-287 -458 268 0
-287 458 258 0
288 458 -270 0
288 -458 -273 0
-288 -458 273 0
-288 458 270 0
-289 457 -458 279 0
-289 457 458 275 0
289 -457 0
289 -458 -279 0
289 458 -275 0
290 -457 -458 283 0
290 -457 458 281 0
-290 457 0
-290 -458 -283 0
-290 458 -281 0
291 -455 15 292 334 0
-291 -292 0
-291 -334 0
-291 455 0
-291 -15 0
-292 -456 241 293 0
-292 456 293 333 0
292 -293 0
292 456 -333 0
292 -456 -241 0
293 -456 -16 0
293 456 -294 0
293 -456 -330 0
-293 456 294 0
-293 -456 16 330 0
-294 458 295 307 0
-294 -458 302 307 0
294 -307 0
294 458 -295 0
294 -458 -302 0
295 422 169 -296 0
295 -422 169 -282 0
-295 -169 0
-295 -422 282 0
-295 422 296 0
296 -423 -252 0
296 423 -297 0
-296 423 297 0
-296 -423 252 0
297 -424 -224 0
297 424 -298 0
-297 424 298 0
-297 -424 224 0
298 -425 -22 0
298 425 -299 0
-298 425 299 0
-298 -425 22 0
299 426 -300 0
299 -426 -301 0
-299 -426 301 0
-299 426 300 0
300 37 -162 0
-300 -37 0
-300 162 0
301 37 -168 0
-301 -37 0
-301 168 0
302 422 169 -303 0
302 -422 169 -284 0
-302 -169 0
-302 -422 284 0
-302 422 303 0
303 -423 -256 0
303 423 -304 0
-303 423 304 0
-303 -423 256 0
304 -424 -236 0
304 424 -305 0
-304 424 305 0
-304 -424 236 0
305 -425 -204 0
305 425 -306 0
-305 425 306 0
-305 -425 204 0
306 -426 -23 0
306 426 -301 0
-306 426 301 0
-306 -426 23 0
307 -457 -17 0
307 457 -308 0
307 -457 -329 0
-307 457 308 0
-307 -457 17 329 0
-308 458 309 324 0
-308 309 320 324 0
308 -324 0
308 -309 0
308 -458 -320 0
309 310 -311 0
-309 -310 0
-309 311 0
-310 458 169 0
310 -458 0
310 -169 0
311 -422 -274 0
311 422 -312 0
-311 422 312 0
-311 -422 274 0
312 -423 -235 0
312 423 -313 0
-312 423 313 0
-312 -423 235 0
313 -424 -305 0
313 424 -314 0
-313 424 314 0
-313 -424 305 0
314 425 -315 0
314 -425 -318 0
-314 -425 318 0
-314 425 315 0
315 426 -316 0
315 -426 -317 0
-315 -426 317 0
-315 426 316 0
316 37 -141 0
-316 -37 0
-316 141 0
317 37 -149 0
-317 -37 0
-317 149 0
318 -426 -300 0
318 426 -319 0
-318 426 319 0
-318 -426 300 0
319 37 -155 0
-319 -37 0
-319 155 0
320 422 169 -321 0
320 -422 169 -280 0
-320 -169 0
-320 -422 280 0
-320 422 321 0
321 -423 -263 0
321 423 -322 0
-321 423 322 0
-321 -423 263 0
322 -424 -203 0
322 424 -323 0
-322 424 323 0
-322 -424 203 0
323 -425 -306 0
323 425 -318 0
-323 425 318 0
-323 -425 306 0
324 422 169 -325 0
324 -422 169 -276 0
-324 -169 0
-324 -422 276 0
-324 422 325 0
325 -423 -246 0
325 423 -326 0
-325 423 326 0
-325 -423 246 0
326 -424 -21 0
326 424 -327 0
-326 424 327 0
-326 -424 21 0
327 -425 -299 0
327 425 -328 0
-327 425 328 0
-327 -425 299 0
328 426 -317 0
328 -426 -319 0
-328 -426 319 0
-328 426 317 0
329 -458 -295 0
329 458 -320 0
-329 458 320 0
-329 -458 295 0
-330 -457 331 0
-330 457 220 332 0
330 457 -220 0
330 -457 -331 0
330 457 -332 0
-331 242 260 0
331 -242 0
331 -260 0
332 -458 -18 0
332 458 -302 0
-332 458 302 0
-332 -458 18 0
333 457 -329 0
333 -457 -332 0
-333 -457 332 0
-333 457 329 0
334 -456 -335 0
334 456 -330 0
-334 456 330 0
-334 -456 335 0
-335 -457 337 0
-335 457 243 336 0
335 457 -243 0
335 -457 -337 0
335 457 -336 0
336 458 -250 0
336 -458 -254 0
-336 -458 254 0
-336 458 250 0
-337 265 287 0
337 -265 0
337 -287 0
-338 456 339 0
-338 294 333 339 0
338 -339 0
338 -456 -294 0
338 -456 -333 0
-339 308 340 365 0
-339 457 340 365 0
339 -340 0
339 -365 0
339 -457 -308 0
-340 455 341 0
-340 455 -457 0
-340 455 -456 0
340 -455 0
340 456 457 -341 0
-341 234 342 0
-341 422 342 0
-341 -310 342 0
341 -342 0
341 -422 -234 310 0
-342 343 358 0
-342 -310 343 0
-342 -422 343 0
342 -343 0
342 422 310 -358 0
343 423 233 -344 0
343 -423 233 -326 0
-343 -233 0
-343 423 344 0
-343 -423 326 0
-344 424 345 0
-344 -424 352 0
344 -424 -352 0
344 424 -345 0
-345 425 349 0
-345 -425 346 0
345 -425 -346 0
345 425 -349 0
346 426 -347 0
346 -426 -348 0
-346 -426 348 0
-346 426 347 0
347 37 -103 0
-347 -37 0
-347 103 0
348 37 -111 0
-348 -37 0
-348 111 0
349 426 -350 0
349 -426 -351 0
-349 -426 351 0
-349 426 350 0
350 37 -86 0
-350 -37 0
-350 86 0
351 37 -94 0
-351 -37 0
-351 94 0
352 425 -353 0
352 -425 -356 0
-352 -425 356 0
-352 425 353 0
353 426 -354 0
353 -426 -355 0
-353 -426 355 0
-353 426 354 0
354 37 -122 0
-354 -37 0
-354 122 0
355 37 -128 0
-355 -37 0
-355 128 0
356 -426 -316 0
356 426 -357 0
-356 426 357 0
-356 -426 316 0
357 37 -135 0
-357 -37 0
-357 135 0
-358 -423 313 0
-358 423 359 0
358 -423 -313 0
358 423 -359 0
-359 424 360 0
-359 -424 362 0
359 -424 -362 0
359 424 -360 0
-360 -425 361 0
-360 425 350 0
-360 425 426 0
360 -425 -361 0
360 425 -426 -350 0
361 -426 -347 0
361 426 -351 0
-361 426 351 0
-361 -426 347 0
362 425 -363 0
362 -425 -364 0
-362 -425 364 0
-362 425 363 0
363 426 -348 0
363 -426 -354 0
-363 -426 354 0
-363 426 348 0
364 426 -355 0
364 -426 -357 0
-364 -426 357 0
-364 426 355 0
365 169 -370 0
365 169 -366 0
365 169 -383 0
-365 -169 0
-365 366 370 383 0
-366 458 367 0
-366 -458 311 0
-366 -457 458 0
366 -458 -311 0
366 457 458 -367 0
367 -422 -255 0
367 422 -368 0
-367 422 368 0
-367 -422 255 0
368 -423 -304 0
368 423 -369 0
-368 423 369 0
-368 -423 304 0
369 -424 -314 0
369 424 -362 0
-369 424 362 0
-369 -424 314 0
-370 -422 371 382 0
-370 422 371 375 0
370 -371 0
370 -422 -382 0
370 422 -375 0
371 457 -372 0
371 456 458 -372 0
-371 372 0
-371 -457 -458 0
-371 -456 -457 0
372 -422 -259 0
372 422 -373 0
-372 422 373 0
-372 -422 259 0
373 -423 -20 0
373 423 -374 0
-373 423 374 0
-373 -423 20 0
374 -424 -327 0
374 424 -352 0
-374 424 352 0
-374 -424 327 0
-375 -423 376 0
-375 423 378 379 0
375 423 -379 0
375 -423 -376 0
375 423 -378 0
-376 223 -377 0
-376 202 223 0
376 -223 0
376 -202 377 0
377 -456 -457 -458 0
-377 456 0
-377 457 0
-377 458 0
378 -424 -298 0
378 -424 -323 377 0
-378 424 0
-378 298 -377 0
-378 298 323 0
379 424 -381 0
379 424 377 -380 0
-379 -424 0
-379 -377 381 0
-379 380 381 0
380 -425 -315 0
380 425 -364 0
-380 425 364 0
-380 -425 315 0
381 -425 -328 0
381 425 -356 0
-381 425 356 0
-381 -425 328 0
-382 271 -377 0
-382 269 271 0
382 -271 0
382 -269 377 0
383 456 -385 0
383 456 -457 -384 0
-383 -456 0
-383 457 385 0
-383 384 385 0
-384 367 372 0
-384 458 367 0
384 -367 0
384 -458 -372 0
-385 458 386 389 0
-385 367 386 389 0
385 -389 0
385 -386 0
385 -458 -367 0
386 -422 -387 0
386 -422 457 -245 0
-386 422 0
-386 -457 387 0
-386 245 387 0
-387 251 262 0
-387 251 -388 0
387 -251 0
387 -262 388 0
388 -457 -458 0
-388 457 0
-388 458 0
389 422 -423 -390 0
389 422 423 -391 0
-389 -422 0
-389 -423 390 0
-389 423 391 0
-390 297 322 0
-390 297 -388 0
390 -297 0
390 -322 388 0
-391 424 393 0
-391 -424 381 392 0
391 -424 -381 0
391 424 -393 0
391 -424 -392 0
392 388 -380 0
-392 -388 0
-392 380 0
-393 425 346 394 0
-393 -425 353 394 0
393 -394 0
393 425 -346 0
393 -425 -353 0
394 425 -361 388 0
394 -425 -363 388 0
-394 -388 0
-394 -425 363 0
-394 425 361 0
-459 0
2 0

